QPLIB_1976
QBQ
minimize
152 # number of variables
152 # number of constraints
800 # number of quadratic terms in objective
2 1 -1080.0
3 1 -852.0
4 1 -344.0
5 1 -1472.0
6 1 -422.0
7 1 -736.0
8 1 -1134.0
9 1 -858.0
10 1 -1564.0
11 1 -1060.0
12 1 -1724.0
13 1 -246.0
14 1 -134.0
15 1 -270.0
16 1 -1858.0
3 2 -1604.0
4 2 -44.0
5 2 -116.0
6 2 -138.0
7 2 -334.0
8 2 -786.0
9 2 -912.0
10 2 -22.0
11 2 -84.0
12 2 -458.0
13 2 -746.0
14 2 -842.0
15 2 -1838.0
16 2 -1568.0
4 3 -1074.0
5 3 -396.0
6 3 -648.0
7 3 -630.0
8 3 -740.0
9 3 -826.0
10 3 -1052.0
11 3 -182.0
12 3 -1960.0
13 3 -1912.0
14 3 -1746.0
15 3 -1724.0
16 3 -340.0
5 4 -1992.0
6 4 -562.0
7 4 -610.0
8 4 -1850.0
9 4 -168.0
10 4 -654.0
11 4 -672.0
12 4 -1010.0
13 4 -1692.0
14 4 -1458.0
15 4 -626.0
16 4 -1714.0
6 5 -248.0
7 5 -1790.0
8 5 -1164.0
9 5 -1090.0
10 5 -1628.0
11 5 -734.0
12 5 -868.0
13 5 -728.0
14 5 -86.0
15 5 -1500.0
16 5 -174.0
7 6 -1616.0
8 6 -552.0
9 6 -356.0
10 6 -1576.0
11 6 -1168.0
12 6 -806.0
13 6 -1302.0
14 6 -1508.0
15 6 -798.0
16 6 -1864.0
8 7 -120.0
9 7 -1352.0
10 7 -736.0
11 7 -1478.0
12 7 -24.0
13 7 -452.0
14 7 -1172.0
15 7 -188.0
16 7 -1078.0
9 8 -1590.0
10 8 -1140.0
11 8 -868.0
12 8 -756.0
13 8 -934.0
14 8 -1202.0
15 8 -194.0
16 8 -1804.0
10 9 -634.0
11 9 -984.0
12 9 -1304.0
13 9 -1512.0
14 9 -602.0
15 9 -560.0
16 9 -572.0
11 10 -882.0
12 10 -1730.0
13 10 -1378.0
14 10 -888.0
15 10 -1238.0
16 10 -880.0
12 11 -1458.0
13 11 -62.0
14 11 -234.0
15 11 -194.0
16 11 -1542.0
13 12 -962.0
14 12 -1350.0
15 12 -1418.0
16 12 -1854.0
14 13 -1134.0
15 13 -1712.0
16 13 -994.0
15 14 -706.0
16 14 -1172.0
16 15 -1930.0
18 17 -1080.0
19 17 -852.0
20 17 -344.0
21 17 -1472.0
22 17 -422.0
23 17 -736.0
24 17 -1134.0
25 17 -858.0
26 17 -1564.0
27 17 -1060.0
28 17 -1724.0
29 17 -246.0
30 17 -134.0
31 17 -270.0
32 17 -1858.0
19 18 -1604.0
20 18 -44.0
21 18 -116.0
22 18 -138.0
23 18 -334.0
24 18 -786.0
25 18 -912.0
26 18 -22.0
27 18 -84.0
28 18 -458.0
29 18 -746.0
30 18 -842.0
31 18 -1838.0
32 18 -1568.0
20 19 -1074.0
21 19 -396.0
22 19 -648.0
23 19 -630.0
24 19 -740.0
25 19 -826.0
26 19 -1052.0
27 19 -182.0
28 19 -1960.0
29 19 -1912.0
30 19 -1746.0
31 19 -1724.0
32 19 -340.0
21 20 -1992.0
22 20 -562.0
23 20 -610.0
24 20 -1850.0
25 20 -168.0
26 20 -654.0
27 20 -672.0
28 20 -1010.0
29 20 -1692.0
30 20 -1458.0
31 20 -626.0
32 20 -1714.0
22 21 -248.0
23 21 -1790.0
24 21 -1164.0
25 21 -1090.0
26 21 -1628.0
27 21 -734.0
28 21 -868.0
29 21 -728.0
30 21 -86.0
31 21 -1500.0
32 21 -174.0
23 22 -1616.0
24 22 -552.0
25 22 -356.0
26 22 -1576.0
27 22 -1168.0
28 22 -806.0
29 22 -1302.0
30 22 -1508.0
31 22 -798.0
32 22 -1864.0
24 23 -120.0
25 23 -1352.0
26 23 -736.0
27 23 -1478.0
28 23 -24.0
29 23 -452.0
30 23 -1172.0
31 23 -188.0
32 23 -1078.0
25 24 -1590.0
26 24 -1140.0
27 24 -868.0
28 24 -756.0
29 24 -934.0
30 24 -1202.0
31 24 -194.0
32 24 -1804.0
26 25 -634.0
27 25 -984.0
28 25 -1304.0
29 25 -1512.0
30 25 -602.0
31 25 -560.0
32 25 -572.0
27 26 -882.0
28 26 -1730.0
29 26 -1378.0
30 26 -888.0
31 26 -1238.0
32 26 -880.0
28 27 -1458.0
29 27 -62.0
30 27 -234.0
31 27 -194.0
32 27 -1542.0
29 28 -962.0
30 28 -1350.0
31 28 -1418.0
32 28 -1854.0
30 29 -1134.0
31 29 -1712.0
32 29 -994.0
31 30 -706.0
32 30 -1172.0
32 31 -1930.0
34 33 -1604.0
35 33 -44.0
36 33 -116.0
37 33 -138.0
38 33 -334.0
39 33 -786.0
40 33 -912.0
41 33 -22.0
42 33 -84.0
43 33 -458.0
44 33 -746.0
45 33 -842.0
46 33 -1838.0
47 33 -1568.0
35 34 -1074.0
36 34 -396.0
37 34 -648.0
38 34 -630.0
39 34 -740.0
40 34 -826.0
41 34 -1052.0
42 34 -182.0
43 34 -1960.0
44 34 -1912.0
45 34 -1746.0
46 34 -1724.0
47 34 -340.0
36 35 -1992.0
37 35 -562.0
38 35 -610.0
39 35 -1850.0
40 35 -168.0
41 35 -654.0
42 35 -672.0
43 35 -1010.0
44 35 -1692.0
45 35 -1458.0
46 35 -626.0
47 35 -1714.0
37 36 -248.0
38 36 -1790.0
39 36 -1164.0
40 36 -1090.0
41 36 -1628.0
42 36 -734.0
43 36 -868.0
44 36 -728.0
45 36 -86.0
46 36 -1500.0
47 36 -174.0
38 37 -1616.0
39 37 -552.0
40 37 -356.0
41 37 -1576.0
42 37 -1168.0
43 37 -806.0
44 37 -1302.0
45 37 -1508.0
46 37 -798.0
47 37 -1864.0
39 38 -120.0
40 38 -1352.0
41 38 -736.0
42 38 -1478.0
43 38 -24.0
44 38 -452.0
45 38 -1172.0
46 38 -188.0
47 38 -1078.0
40 39 -1590.0
41 39 -1140.0
42 39 -868.0
43 39 -756.0
44 39 -934.0
45 39 -1202.0
46 39 -194.0
47 39 -1804.0
41 40 -634.0
42 40 -984.0
43 40 -1304.0
44 40 -1512.0
45 40 -602.0
46 40 -560.0
47 40 -572.0
42 41 -882.0
43 41 -1730.0
44 41 -1378.0
45 41 -888.0
46 41 -1238.0
47 41 -880.0
43 42 -1458.0
44 42 -62.0
45 42 -234.0
46 42 -194.0
47 42 -1542.0
44 43 -962.0
45 43 -1350.0
46 43 -1418.0
47 43 -1854.0
45 44 -1134.0
46 44 -1712.0
47 44 -994.0
46 45 -706.0
47 45 -1172.0
47 46 -1930.0
49 48 -1074.0
50 48 -396.0
51 48 -648.0
52 48 -630.0
53 48 -740.0
54 48 -826.0
55 48 -1052.0
56 48 -182.0
57 48 -1960.0
58 48 -1912.0
59 48 -1746.0
60 48 -1724.0
61 48 -340.0
50 49 -1992.0
51 49 -562.0
52 49 -610.0
53 49 -1850.0
54 49 -168.0
55 49 -654.0
56 49 -672.0
57 49 -1010.0
58 49 -1692.0
59 49 -1458.0
60 49 -626.0
61 49 -1714.0
51 50 -248.0
52 50 -1790.0
53 50 -1164.0
54 50 -1090.0
55 50 -1628.0
56 50 -734.0
57 50 -868.0
58 50 -728.0
59 50 -86.0
60 50 -1500.0
61 50 -174.0
52 51 -1616.0
53 51 -552.0
54 51 -356.0
55 51 -1576.0
56 51 -1168.0
57 51 -806.0
58 51 -1302.0
59 51 -1508.0
60 51 -798.0
61 51 -1864.0
53 52 -120.0
54 52 -1352.0
55 52 -736.0
56 52 -1478.0
57 52 -24.0
58 52 -452.0
59 52 -1172.0
60 52 -188.0
61 52 -1078.0
54 53 -1590.0
55 53 -1140.0
56 53 -868.0
57 53 -756.0
58 53 -934.0
59 53 -1202.0
60 53 -194.0
61 53 -1804.0
55 54 -634.0
56 54 -984.0
57 54 -1304.0
58 54 -1512.0
59 54 -602.0
60 54 -560.0
61 54 -572.0
56 55 -882.0
57 55 -1730.0
58 55 -1378.0
59 55 -888.0
60 55 -1238.0
61 55 -880.0
57 56 -1458.0
58 56 -62.0
59 56 -234.0
60 56 -194.0
61 56 -1542.0
58 57 -962.0
59 57 -1350.0
60 57 -1418.0
61 57 -1854.0
59 58 -1134.0
60 58 -1712.0
61 58 -994.0
60 59 -706.0
61 59 -1172.0
61 60 -1930.0
63 62 -1992.0
64 62 -562.0
65 62 -610.0
66 62 -1850.0
67 62 -168.0
68 62 -654.0
69 62 -672.0
70 62 -1010.0
71 62 -1692.0
72 62 -1458.0
73 62 -626.0
74 62 -1714.0
64 63 -248.0
65 63 -1790.0
66 63 -1164.0
67 63 -1090.0
68 63 -1628.0
69 63 -734.0
70 63 -868.0
71 63 -728.0
72 63 -86.0
73 63 -1500.0
74 63 -174.0
65 64 -1616.0
66 64 -552.0
67 64 -356.0
68 64 -1576.0
69 64 -1168.0
70 64 -806.0
71 64 -1302.0
72 64 -1508.0
73 64 -798.0
74 64 -1864.0
66 65 -120.0
67 65 -1352.0
68 65 -736.0
69 65 -1478.0
70 65 -24.0
71 65 -452.0
72 65 -1172.0
73 65 -188.0
74 65 -1078.0
67 66 -1590.0
68 66 -1140.0
69 66 -868.0
70 66 -756.0
71 66 -934.0
72 66 -1202.0
73 66 -194.0
74 66 -1804.0
68 67 -634.0
69 67 -984.0
70 67 -1304.0
71 67 -1512.0
72 67 -602.0
73 67 -560.0
74 67 -572.0
69 68 -882.0
70 68 -1730.0
71 68 -1378.0
72 68 -888.0
73 68 -1238.0
74 68 -880.0
70 69 -1458.0
71 69 -62.0
72 69 -234.0
73 69 -194.0
74 69 -1542.0
71 70 -962.0
72 70 -1350.0
73 70 -1418.0
74 70 -1854.0
72 71 -1134.0
73 71 -1712.0
74 71 -994.0
73 72 -706.0
74 72 -1172.0
74 73 -1930.0
76 75 -248.0
77 75 -1790.0
78 75 -1164.0
79 75 -1090.0
80 75 -1628.0
81 75 -734.0
82 75 -868.0
83 75 -728.0
84 75 -86.0
85 75 -1500.0
86 75 -174.0
77 76 -1616.0
78 76 -552.0
79 76 -356.0
80 76 -1576.0
81 76 -1168.0
82 76 -806.0
83 76 -1302.0
84 76 -1508.0
85 76 -798.0
86 76 -1864.0
78 77 -120.0
79 77 -1352.0
80 77 -736.0
81 77 -1478.0
82 77 -24.0
83 77 -452.0
84 77 -1172.0
85 77 -188.0
86 77 -1078.0
79 78 -1590.0
80 78 -1140.0
81 78 -868.0
82 78 -756.0
83 78 -934.0
84 78 -1202.0
85 78 -194.0
86 78 -1804.0
80 79 -634.0
81 79 -984.0
82 79 -1304.0
83 79 -1512.0
84 79 -602.0
85 79 -560.0
86 79 -572.0
81 80 -882.0
82 80 -1730.0
83 80 -1378.0
84 80 -888.0
85 80 -1238.0
86 80 -880.0
82 81 -1458.0
83 81 -62.0
84 81 -234.0
85 81 -194.0
86 81 -1542.0
83 82 -962.0
84 82 -1350.0
85 82 -1418.0
86 82 -1854.0
84 83 -1134.0
85 83 -1712.0
86 83 -994.0
85 84 -706.0
86 84 -1172.0
86 85 -1930.0
88 87 -1616.0
89 87 -552.0
90 87 -356.0
91 87 -1576.0
92 87 -1168.0
93 87 -806.0
94 87 -1302.0
95 87 -1508.0
96 87 -798.0
97 87 -1864.0
89 88 -120.0
90 88 -1352.0
91 88 -736.0
92 88 -1478.0
93 88 -24.0
94 88 -452.0
95 88 -1172.0
96 88 -188.0
97 88 -1078.0
90 89 -1590.0
91 89 -1140.0
92 89 -868.0
93 89 -756.0
94 89 -934.0
95 89 -1202.0
96 89 -194.0
97 89 -1804.0
91 90 -634.0
92 90 -984.0
93 90 -1304.0
94 90 -1512.0
95 90 -602.0
96 90 -560.0
97 90 -572.0
92 91 -882.0
93 91 -1730.0
94 91 -1378.0
95 91 -888.0
96 91 -1238.0
97 91 -880.0
93 92 -1458.0
94 92 -62.0
95 92 -234.0
96 92 -194.0
97 92 -1542.0
94 93 -962.0
95 93 -1350.0
96 93 -1418.0
97 93 -1854.0
95 94 -1134.0
96 94 -1712.0
97 94 -994.0
96 95 -706.0
97 95 -1172.0
97 96 -1930.0
99 98 -120.0
100 98 -1352.0
101 98 -736.0
102 98 -1478.0
103 98 -24.0
104 98 -452.0
105 98 -1172.0
106 98 -188.0
107 98 -1078.0
100 99 -1590.0
101 99 -1140.0
102 99 -868.0
103 99 -756.0
104 99 -934.0
105 99 -1202.0
106 99 -194.0
107 99 -1804.0
101 100 -634.0
102 100 -984.0
103 100 -1304.0
104 100 -1512.0
105 100 -602.0
106 100 -560.0
107 100 -572.0
102 101 -882.0
103 101 -1730.0
104 101 -1378.0
105 101 -888.0
106 101 -1238.0
107 101 -880.0
103 102 -1458.0
104 102 -62.0
105 102 -234.0
106 102 -194.0
107 102 -1542.0
104 103 -962.0
105 103 -1350.0
106 103 -1418.0
107 103 -1854.0
105 104 -1134.0
106 104 -1712.0
107 104 -994.0
106 105 -706.0
107 105 -1172.0
107 106 -1930.0
109 108 -1590.0
110 108 -1140.0
111 108 -868.0
112 108 -756.0
113 108 -934.0
114 108 -1202.0
115 108 -194.0
116 108 -1804.0
110 109 -634.0
111 109 -984.0
112 109 -1304.0
113 109 -1512.0
114 109 -602.0
115 109 -560.0
116 109 -572.0
111 110 -882.0
112 110 -1730.0
113 110 -1378.0
114 110 -888.0
115 110 -1238.0
116 110 -880.0
112 111 -1458.0
113 111 -62.0
114 111 -234.0
115 111 -194.0
116 111 -1542.0
113 112 -962.0
114 112 -1350.0
115 112 -1418.0
116 112 -1854.0
114 113 -1134.0
115 113 -1712.0
116 113 -994.0
115 114 -706.0
116 114 -1172.0
116 115 -1930.0
118 117 -634.0
119 117 -984.0
120 117 -1304.0
121 117 -1512.0
122 117 -602.0
123 117 -560.0
124 117 -572.0
119 118 -882.0
120 118 -1730.0
121 118 -1378.0
122 118 -888.0
123 118 -1238.0
124 118 -880.0
120 119 -1458.0
121 119 -62.0
122 119 -234.0
123 119 -194.0
124 119 -1542.0
121 120 -962.0
122 120 -1350.0
123 120 -1418.0
124 120 -1854.0
122 121 -1134.0
123 121 -1712.0
124 121 -994.0
123 122 -706.0
124 122 -1172.0
124 123 -1930.0
126 125 -882.0
127 125 -1730.0
128 125 -1378.0
129 125 -888.0
130 125 -1238.0
131 125 -880.0
127 126 -1458.0
128 126 -62.0
129 126 -234.0
130 126 -194.0
131 126 -1542.0
128 127 -962.0
129 127 -1350.0
130 127 -1418.0
131 127 -1854.0
129 128 -1134.0
130 128 -1712.0
131 128 -994.0
130 129 -706.0
131 129 -1172.0
131 130 -1930.0
133 132 -1458.0
134 132 -62.0
135 132 -234.0
136 132 -194.0
137 132 -1542.0
134 133 -962.0
135 133 -1350.0
136 133 -1418.0
137 133 -1854.0
135 134 -1134.0
136 134 -1712.0
137 134 -994.0
136 135 -706.0
137 135 -1172.0
137 136 -1930.0
139 138 -962.0
140 138 -1350.0
141 138 -1418.0
142 138 -1854.0
140 139 -1134.0
141 139 -1712.0
142 139 -994.0
141 140 -706.0
142 140 -1172.0
142 141 -1930.0
144 143 -1134.0
145 143 -1712.0
146 143 -994.0
145 144 -706.0
146 144 -1172.0
146 145 -1930.0
148 147 -706.0
149 147 -1172.0
149 148 -1930.0
151 150 -1930.0
0.0 # default value for linear coefficients in objective
16 # number of non-default linear coefficients in objective
1 -383.0
2 -886.0
3 -777.0
4 -915.0
5 -793.0
6 -335.0
7 -386.0
8 -492.0
9 -649.0
10 -421.0
11 -362.0
12 -27.0
13 -690.0
14 -59.0
15 -763.0
16 -926.0
0.0 # objective constant
800 # number of quadratic terms in all constraints
137 20 18 -1080.0
137 20 18 -852.0
137 20 18 -344.0
137 20 18 -1472.0
137 20 18 -422.0
137 20 18 -736.0
137 20 18 -1134.0
137 20 18 -858.0
137 20 18 -1564.0
137 20 18 -1060.0
137 20 18 -1724.0
137 20 18 -246.0
137 20 18 -134.0
137 20 18 -270.0
137 20 18 -1858.0
137 20 18 -1604.0
137 20 18 -44.0
137 20 18 -116.0
137 20 18 -138.0
137 20 18 -334.0
137 20 18 -786.0
137 20 18 -912.0
137 20 18 -22.0
137 20 18 -84.0
137 20 18 -458.0
137 20 18 -746.0
137 20 18 -842.0
137 20 18 -1838.0
137 20 18 -1568.0
137 20 18 -1074.0
137 20 18 -396.0
137 20 18 -648.0
137 20 18 -630.0
137 20 18 -740.0
137 20 18 -826.0
137 20 18 -1052.0
137 20 18 -182.0
137 20 18 -1960.0
137 20 18 -1912.0
137 20 18 -1746.0
137 20 18 -1724.0
137 20 18 -340.0
137 20 18 -1992.0
137 20 18 -562.0
137 20 18 -610.0
137 20 18 -1850.0
137 20 18 -168.0
137 20 18 -654.0
137 20 18 -672.0
137 20 18 -1010.0
137 20 18 -1692.0
137 20 18 -1458.0
137 20 18 -626.0
137 20 18 -1714.0
137 20 18 -248.0
137 20 18 -1790.0
137 20 18 -1164.0
137 20 18 -1090.0
137 20 18 -1628.0
137 20 18 -734.0
137 20 18 -868.0
137 20 18 -728.0
137 20 18 -86.0
137 20 18 -1500.0
137 20 18 -174.0
137 20 18 -1616.0
137 20 18 -552.0
137 20 18 -356.0
137 20 18 -1576.0
137 20 18 -1168.0
137 20 18 -806.0
137 20 18 -1302.0
137 20 18 -1508.0
137 20 18 -798.0
137 20 18 -1864.0
137 20 18 -120.0
137 20 18 -1352.0
137 20 18 -736.0
137 20 18 -1478.0
137 20 18 -24.0
137 20 18 -452.0
137 20 18 -1172.0
137 20 18 -188.0
137 20 18 -1078.0
137 20 18 -1590.0
137 20 18 -1140.0
137 20 18 -868.0
137 20 18 -756.0
137 20 18 -934.0
137 20 18 -1202.0
137 20 18 -194.0
137 20 18 -1804.0
137 20 18 -634.0
137 20 18 -984.0
137 20 18 -1304.0
137 20 18 -1512.0
137 20 18 -602.0
137 20 18 -560.0
137 20 18 -572.0
137 20 18 -882.0
137 20 18 -1730.0
137 20 18 -1378.0
137 20 18 -888.0
137 20 18 -1238.0
137 20 18 -880.0
137 20 18 -1458.0
137 20 18 -62.0
137 20 18 -234.0
137 20 18 -194.0
137 20 18 -1542.0
137 20 18 -962.0
137 20 18 -1350.0
137 20 18 -1418.0
137 20 18 -1854.0
137 20 18 -1134.0
137 20 18 -1712.0
137 20 18 -994.0
137 20 18 -706.0
137 20 18 -1172.0
137 20 18 -1930.0
138 21 18 -1080.0
138 21 18 -852.0
138 21 18 -344.0
138 21 18 -1472.0
138 21 18 -422.0
138 21 18 -736.0
138 21 18 -1134.0
138 21 18 -858.0
138 21 18 -1564.0
138 21 18 -1060.0
138 21 18 -1724.0
138 21 18 -246.0
138 21 18 -134.0
138 21 18 -270.0
138 21 18 -1858.0
138 21 18 -1604.0
138 21 18 -44.0
138 21 18 -116.0
138 21 18 -138.0
138 21 18 -334.0
138 21 18 -786.0
138 21 18 -912.0
138 21 18 -22.0
138 21 18 -84.0
138 21 18 -458.0
138 21 18 -746.0
138 21 18 -842.0
138 21 18 -1838.0
138 21 18 -1568.0
138 21 18 -1074.0
138 21 18 -396.0
138 21 18 -648.0
138 21 18 -630.0
138 21 18 -740.0
138 21 18 -826.0
138 21 18 -1052.0
138 21 18 -182.0
138 21 18 -1960.0
138 21 18 -1912.0
138 21 18 -1746.0
138 21 18 -1724.0
138 21 18 -340.0
138 21 18 -1992.0
138 21 18 -562.0
138 21 18 -610.0
138 21 18 -1850.0
138 21 18 -168.0
138 21 18 -654.0
138 21 18 -672.0
138 21 18 -1010.0
138 21 18 -1692.0
138 21 18 -1458.0
138 21 18 -626.0
138 21 18 -1714.0
138 21 18 -248.0
138 21 18 -1790.0
138 21 18 -1164.0
138 21 18 -1090.0
138 21 18 -1628.0
138 21 18 -734.0
138 21 18 -868.0
138 21 18 -728.0
138 21 18 -86.0
138 21 18 -1500.0
138 21 18 -174.0
138 21 18 -1616.0
138 21 18 -552.0
138 21 18 -356.0
138 21 18 -1576.0
138 21 18 -1168.0
138 21 18 -806.0
138 21 18 -1302.0
138 21 18 -1508.0
138 21 18 -798.0
138 21 18 -1864.0
138 21 18 -120.0
138 21 18 -1352.0
138 21 18 -736.0
138 21 18 -1478.0
138 21 18 -24.0
138 21 18 -452.0
138 21 18 -1172.0
138 21 18 -188.0
138 21 18 -1078.0
138 21 18 -1590.0
138 21 18 -1140.0
138 21 18 -868.0
138 21 18 -756.0
138 21 18 -934.0
138 21 18 -1202.0
138 21 18 -194.0
138 21 18 -1804.0
138 21 18 -634.0
138 21 18 -984.0
138 21 18 -1304.0
138 21 18 -1512.0
138 21 18 -602.0
138 21 18 -560.0
138 21 18 -572.0
138 21 18 -882.0
138 21 18 -1730.0
138 21 18 -1378.0
138 21 18 -888.0
138 21 18 -1238.0
138 21 18 -880.0
138 21 18 -1458.0
138 21 18 -62.0
138 21 18 -234.0
138 21 18 -194.0
138 21 18 -1542.0
138 21 18 -962.0
138 21 18 -1350.0
138 21 18 -1418.0
138 21 18 -1854.0
138 21 18 -1134.0
138 21 18 -1712.0
138 21 18 -994.0
138 21 18 -706.0
138 21 18 -1172.0
138 21 18 -1930.0
139 22 18 -1604.0
139 22 18 -44.0
139 22 18 -116.0
139 22 18 -138.0
139 22 18 -334.0
139 22 18 -786.0
139 22 18 -912.0
139 22 18 -22.0
139 22 18 -84.0
139 22 18 -458.0
139 22 18 -746.0
139 22 18 -842.0
139 22 18 -1838.0
139 22 18 -1568.0
139 22 18 -1074.0
139 22 18 -396.0
139 22 18 -648.0
139 22 18 -630.0
139 22 18 -740.0
139 22 18 -826.0
139 22 18 -1052.0
139 22 18 -182.0
139 22 18 -1960.0
139 22 18 -1912.0
139 22 18 -1746.0
139 22 18 -1724.0
139 22 18 -340.0
139 22 18 -1992.0
139 22 18 -562.0
139 22 18 -610.0
139 22 18 -1850.0
139 22 18 -168.0
139 22 18 -654.0
139 22 18 -672.0
139 22 18 -1010.0
139 22 18 -1692.0
139 22 18 -1458.0
139 22 18 -626.0
139 22 18 -1714.0
139 22 18 -248.0
139 22 18 -1790.0
139 22 18 -1164.0
139 22 18 -1090.0
139 22 18 -1628.0
139 22 18 -734.0
139 22 18 -868.0
139 22 18 -728.0
139 22 18 -86.0
139 22 18 -1500.0
139 22 18 -174.0
139 22 18 -1616.0
139 22 18 -552.0
139 22 18 -356.0
139 22 18 -1576.0
139 22 18 -1168.0
139 22 18 -806.0
139 22 18 -1302.0
139 22 18 -1508.0
139 22 18 -798.0
139 22 18 -1864.0
139 22 18 -120.0
139 22 18 -1352.0
139 22 18 -736.0
139 22 18 -1478.0
139 22 18 -24.0
139 22 18 -452.0
139 22 18 -1172.0
139 22 18 -188.0
139 22 18 -1078.0
139 22 18 -1590.0
139 22 18 -1140.0
139 22 18 -868.0
139 22 18 -756.0
139 22 18 -934.0
139 22 18 -1202.0
139 22 18 -194.0
139 22 18 -1804.0
139 22 18 -634.0
139 22 18 -984.0
139 22 18 -1304.0
139 22 18 -1512.0
139 22 18 -602.0
139 22 18 -560.0
139 22 18 -572.0
139 22 18 -882.0
139 22 18 -1730.0
139 22 18 -1378.0
139 22 18 -888.0
139 22 18 -1238.0
139 22 18 -880.0
139 22 18 -1458.0
139 22 18 -62.0
139 22 18 -234.0
139 22 18 -194.0
139 22 18 -1542.0
139 22 18 -962.0
139 22 18 -1350.0
139 22 18 -1418.0
139 22 18 -1854.0
139 22 18 -1134.0
139 22 18 -1712.0
139 22 18 -994.0
139 22 18 -706.0
139 22 18 -1172.0
139 22 18 -1930.0
140 23 18 -1074.0
140 23 18 -396.0
140 23 18 -648.0
140 23 18 -630.0
140 23 18 -740.0
140 23 18 -826.0
140 23 18 -1052.0
140 23 18 -182.0
140 23 18 -1960.0
140 23 18 -1912.0
140 23 18 -1746.0
140 23 18 -1724.0
140 23 18 -340.0
140 23 18 -1992.0
140 23 18 -562.0
140 23 18 -610.0
140 23 18 -1850.0
140 23 18 -168.0
140 23 18 -654.0
140 23 18 -672.0
140 23 18 -1010.0
140 23 18 -1692.0
140 23 18 -1458.0
140 23 18 -626.0
140 23 18 -1714.0
140 23 18 -248.0
140 23 18 -1790.0
140 23 18 -1164.0
140 23 18 -1090.0
140 23 18 -1628.0
140 23 18 -734.0
140 23 18 -868.0
140 23 18 -728.0
140 23 18 -86.0
140 23 18 -1500.0
140 23 18 -174.0
140 23 18 -1616.0
140 23 18 -552.0
140 23 18 -356.0
140 23 18 -1576.0
140 23 18 -1168.0
140 23 18 -806.0
140 23 18 -1302.0
140 23 18 -1508.0
140 23 18 -798.0
140 23 18 -1864.0
140 23 18 -120.0
140 23 18 -1352.0
140 23 18 -736.0
140 23 18 -1478.0
140 23 18 -24.0
140 23 18 -452.0
140 23 18 -1172.0
140 23 18 -188.0
140 23 18 -1078.0
140 23 18 -1590.0
140 23 18 -1140.0
140 23 18 -868.0
140 23 18 -756.0
140 23 18 -934.0
140 23 18 -1202.0
140 23 18 -194.0
140 23 18 -1804.0
140 23 18 -634.0
140 23 18 -984.0
140 23 18 -1304.0
140 23 18 -1512.0
140 23 18 -602.0
140 23 18 -560.0
140 23 18 -572.0
140 23 18 -882.0
140 23 18 -1730.0
140 23 18 -1378.0
140 23 18 -888.0
140 23 18 -1238.0
140 23 18 -880.0
140 23 18 -1458.0
140 23 18 -62.0
140 23 18 -234.0
140 23 18 -194.0
140 23 18 -1542.0
140 23 18 -962.0
140 23 18 -1350.0
140 23 18 -1418.0
140 23 18 -1854.0
140 23 18 -1134.0
140 23 18 -1712.0
140 23 18 -994.0
140 23 18 -706.0
140 23 18 -1172.0
140 23 18 -1930.0
141 24 18 -1992.0
141 24 18 -562.0
141 24 18 -610.0
141 24 18 -1850.0
141 24 18 -168.0
141 24 18 -654.0
141 24 18 -672.0
141 24 18 -1010.0
141 24 18 -1692.0
141 24 18 -1458.0
141 24 18 -626.0
141 24 18 -1714.0
141 24 18 -248.0
141 24 18 -1790.0
141 24 18 -1164.0
141 24 18 -1090.0
141 24 18 -1628.0
141 24 18 -734.0
141 24 18 -868.0
141 24 18 -728.0
141 24 18 -86.0
141 24 18 -1500.0
141 24 18 -174.0
141 24 18 -1616.0
141 24 18 -552.0
141 24 18 -356.0
141 24 18 -1576.0
141 24 18 -1168.0
141 24 18 -806.0
141 24 18 -1302.0
141 24 18 -1508.0
141 24 18 -798.0
141 24 18 -1864.0
141 24 18 -120.0
141 24 18 -1352.0
141 24 18 -736.0
141 24 18 -1478.0
141 24 18 -24.0
141 24 18 -452.0
141 24 18 -1172.0
141 24 18 -188.0
141 24 18 -1078.0
141 24 18 -1590.0
141 24 18 -1140.0
141 24 18 -868.0
141 24 18 -756.0
141 24 18 -934.0
141 24 18 -1202.0
141 24 18 -194.0
141 24 18 -1804.0
141 24 18 -634.0
141 24 18 -984.0
141 24 18 -1304.0
141 24 18 -1512.0
141 24 18 -602.0
141 24 18 -560.0
141 24 18 -572.0
141 24 18 -882.0
141 24 18 -1730.0
141 24 18 -1378.0
141 24 18 -888.0
141 24 18 -1238.0
141 24 18 -880.0
141 24 18 -1458.0
141 24 18 -62.0
141 24 18 -234.0
141 24 18 -194.0
141 24 18 -1542.0
141 24 18 -962.0
141 24 18 -1350.0
141 24 18 -1418.0
141 24 18 -1854.0
141 24 18 -1134.0
141 24 18 -1712.0
141 24 18 -994.0
141 24 18 -706.0
141 24 18 -1172.0
141 24 18 -1930.0
142 25 18 -248.0
142 25 18 -1790.0
142 25 18 -1164.0
142 25 18 -1090.0
142 25 18 -1628.0
142 25 18 -734.0
142 25 18 -868.0
142 25 18 -728.0
142 25 18 -86.0
142 25 18 -1500.0
142 25 18 -174.0
142 25 18 -1616.0
142 25 18 -552.0
142 25 18 -356.0
142 25 18 -1576.0
142 25 18 -1168.0
142 25 18 -806.0
142 25 18 -1302.0
142 25 18 -1508.0
142 25 18 -798.0
142 25 18 -1864.0
142 25 18 -120.0
142 25 18 -1352.0
142 25 18 -736.0
142 25 18 -1478.0
142 25 18 -24.0
142 25 18 -452.0
142 25 18 -1172.0
142 25 18 -188.0
142 25 18 -1078.0
142 25 18 -1590.0
142 25 18 -1140.0
142 25 18 -868.0
142 25 18 -756.0
142 25 18 -934.0
142 25 18 -1202.0
142 25 18 -194.0
142 25 18 -1804.0
142 25 18 -634.0
142 25 18 -984.0
142 25 18 -1304.0
142 25 18 -1512.0
142 25 18 -602.0
142 25 18 -560.0
142 25 18 -572.0
142 25 18 -882.0
142 25 18 -1730.0
142 25 18 -1378.0
142 25 18 -888.0
142 25 18 -1238.0
142 25 18 -880.0
142 25 18 -1458.0
142 25 18 -62.0
142 25 18 -234.0
142 25 18 -194.0
142 25 18 -1542.0
142 25 18 -962.0
142 25 18 -1350.0
142 25 18 -1418.0
142 25 18 -1854.0
142 25 18 -1134.0
142 25 18 -1712.0
142 25 18 -994.0
142 25 18 -706.0
142 25 18 -1172.0
142 25 18 -1930.0
143 26 18 -1616.0
143 26 18 -552.0
143 26 18 -356.0
143 26 18 -1576.0
143 26 18 -1168.0
143 26 18 -806.0
143 26 18 -1302.0
143 26 18 -1508.0
143 26 18 -798.0
143 26 18 -1864.0
143 26 18 -120.0
143 26 18 -1352.0
143 26 18 -736.0
143 26 18 -1478.0
143 26 18 -24.0
143 26 18 -452.0
143 26 18 -1172.0
143 26 18 -188.0
143 26 18 -1078.0
143 26 18 -1590.0
143 26 18 -1140.0
143 26 18 -868.0
143 26 18 -756.0
143 26 18 -934.0
143 26 18 -1202.0
143 26 18 -194.0
143 26 18 -1804.0
143 26 18 -634.0
143 26 18 -984.0
143 26 18 -1304.0
143 26 18 -1512.0
143 26 18 -602.0
143 26 18 -560.0
143 26 18 -572.0
143 26 18 -882.0
143 26 18 -1730.0
143 26 18 -1378.0
143 26 18 -888.0
143 26 18 -1238.0
143 26 18 -880.0
143 26 18 -1458.0
143 26 18 -62.0
143 26 18 -234.0
143 26 18 -194.0
143 26 18 -1542.0
143 26 18 -962.0
143 26 18 -1350.0
143 26 18 -1418.0
143 26 18 -1854.0
143 26 18 -1134.0
143 26 18 -1712.0
143 26 18 -994.0
143 26 18 -706.0
143 26 18 -1172.0
143 26 18 -1930.0
144 27 18 -120.0
144 27 18 -1352.0
144 27 18 -736.0
144 27 18 -1478.0
144 27 18 -24.0
144 27 18 -452.0
144 27 18 -1172.0
144 27 18 -188.0
144 27 18 -1078.0
144 27 18 -1590.0
144 27 18 -1140.0
144 27 18 -868.0
144 27 18 -756.0
144 27 18 -934.0
144 27 18 -1202.0
144 27 18 -194.0
144 27 18 -1804.0
144 27 18 -634.0
144 27 18 -984.0
144 27 18 -1304.0
144 27 18 -1512.0
144 27 18 -602.0
144 27 18 -560.0
144 27 18 -572.0
144 27 18 -882.0
144 27 18 -1730.0
144 27 18 -1378.0
144 27 18 -888.0
144 27 18 -1238.0
144 27 18 -880.0
144 27 18 -1458.0
144 27 18 -62.0
144 27 18 -234.0
144 27 18 -194.0
144 27 18 -1542.0
144 27 18 -962.0
144 27 18 -1350.0
144 27 18 -1418.0
144 27 18 -1854.0
144 27 18 -1134.0
144 27 18 -1712.0
144 27 18 -994.0
144 27 18 -706.0
144 27 18 -1172.0
144 27 18 -1930.0
145 28 18 -1590.0
145 28 18 -1140.0
145 28 18 -868.0
145 28 18 -756.0
145 28 18 -934.0
145 28 18 -1202.0
145 28 18 -194.0
145 28 18 -1804.0
145 28 18 -634.0
145 28 18 -984.0
145 28 18 -1304.0
145 28 18 -1512.0
145 28 18 -602.0
145 28 18 -560.0
145 28 18 -572.0
145 28 18 -882.0
145 28 18 -1730.0
145 28 18 -1378.0
145 28 18 -888.0
145 28 18 -1238.0
145 28 18 -880.0
145 28 18 -1458.0
145 28 18 -62.0
145 28 18 -234.0
145 28 18 -194.0
145 28 18 -1542.0
145 28 18 -962.0
145 28 18 -1350.0
145 28 18 -1418.0
145 28 18 -1854.0
145 28 18 -1134.0
145 28 18 -1712.0
145 28 18 -994.0
145 28 18 -706.0
145 28 18 -1172.0
145 28 18 -1930.0
146 29 18 -634.0
146 29 18 -984.0
146 29 18 -1304.0
146 29 18 -1512.0
146 29 18 -602.0
146 29 18 -560.0
146 29 18 -572.0
146 29 18 -882.0
146 29 18 -1730.0
146 29 18 -1378.0
146 29 18 -888.0
146 29 18 -1238.0
146 29 18 -880.0
146 29 18 -1458.0
146 29 18 -62.0
146 29 18 -234.0
146 29 18 -194.0
146 29 18 -1542.0
146 29 18 -962.0
146 29 18 -1350.0
146 29 18 -1418.0
146 29 18 -1854.0
146 29 18 -1134.0
146 29 18 -1712.0
146 29 18 -994.0
146 29 18 -706.0
146 29 18 -1172.0
146 29 18 -1930.0
147 30 18 -882.0
147 30 18 -1730.0
147 30 18 -1378.0
147 30 18 -888.0
147 30 18 -1238.0
147 30 18 -880.0
147 30 18 -1458.0
147 30 18 -62.0
147 30 18 -234.0
147 30 18 -194.0
147 30 18 -1542.0
147 30 18 -962.0
147 30 18 -1350.0
147 30 18 -1418.0
147 30 18 -1854.0
147 30 18 -1134.0
147 30 18 -1712.0
147 30 18 -994.0
147 30 18 -706.0
147 30 18 -1172.0
147 30 18 -1930.0
148 31 18 -1458.0
148 31 18 -62.0
148 31 18 -234.0
148 31 18 -194.0
148 31 18 -1542.0
148 31 18 -962.0
148 31 18 -1350.0
148 31 18 -1418.0
148 31 18 -1854.0
148 31 18 -1134.0
148 31 18 -1712.0
148 31 18 -994.0
148 31 18 -706.0
148 31 18 -1172.0
148 31 18 -1930.0
149 32 18 -962.0
149 32 18 -1350.0
149 32 18 -1418.0
149 32 18 -1854.0
149 32 18 -1134.0
149 32 18 -1712.0
149 32 18 -994.0
149 32 18 -706.0
149 32 18 -1172.0
149 32 18 -1930.0
150 20 19 -1134.0
150 20 19 -1712.0
150 20 19 -994.0
150 20 19 -706.0
150 20 19 -1172.0
150 20 19 -1930.0
151 21 19 -706.0
151 21 19 -1172.0
151 21 19 -1930.0
152 22 19 -1930.0
543 # number of linear terms in all constraints
1 1 1.0
1 17 1.0
2 2 1.0
2 18 1.0
2 33 1.0
3 3 1.0
3 19 1.0
3 34 1.0
3 48 1.0
4 4 1.0
4 20 1.0
4 35 1.0
4 49 1.0
4 62 1.0
5 5 1.0
5 21 1.0
5 36 1.0
5 50 1.0
5 63 1.0
5 75 1.0
6 6 1.0
6 22 1.0
6 37 1.0
6 51 1.0
6 64 1.0
6 76 1.0
6 87 1.0
7 7 1.0
7 23 1.0
7 38 1.0
7 52 1.0
7 65 1.0
7 77 1.0
7 88 1.0
7 98 1.0
8 8 1.0
8 24 1.0
8 39 1.0
8 53 1.0
8 66 1.0
8 78 1.0
8 89 1.0
8 99 1.0
8 108 1.0
9 9 1.0
9 25 1.0
9 40 1.0
9 54 1.0
9 67 1.0
9 79 1.0
9 90 1.0
9 100 1.0
9 109 1.0
9 117 1.0
10 10 1.0
10 26 1.0
10 41 1.0
10 55 1.0
10 68 1.0
10 80 1.0
10 91 1.0
10 101 1.0
10 110 1.0
10 118 1.0
10 125 1.0
11 11 1.0
11 27 1.0
11 42 1.0
11 56 1.0
11 69 1.0
11 81 1.0
11 92 1.0
11 102 1.0
11 111 1.0
11 119 1.0
11 126 1.0
11 132 1.0
12 12 1.0
12 28 1.0
12 43 1.0
12 57 1.0
12 70 1.0
12 82 1.0
12 93 1.0
12 103 1.0
12 112 1.0
12 120 1.0
12 127 1.0
12 133 1.0
12 138 1.0
13 13 1.0
13 29 1.0
13 44 1.0
13 58 1.0
13 71 1.0
13 83 1.0
13 94 1.0
13 104 1.0
13 113 1.0
13 121 1.0
13 128 1.0
13 134 1.0
13 139 1.0
13 143 1.0
14 14 1.0
14 30 1.0
14 45 1.0
14 59 1.0
14 72 1.0
14 84 1.0
14 95 1.0
14 105 1.0
14 114 1.0
14 122 1.0
14 129 1.0
14 135 1.0
14 140 1.0
14 144 1.0
14 147 1.0
15 15 1.0
15 31 1.0
15 46 1.0
15 60 1.0
15 73 1.0
15 85 1.0
15 96 1.0
15 106 1.0
15 115 1.0
15 123 1.0
15 130 1.0
15 136 1.0
15 141 1.0
15 145 1.0
15 148 1.0
15 150 1.0
16 16 1.0
16 32 1.0
16 47 1.0
16 61 1.0
16 74 1.0
16 86 1.0
16 97 1.0
16 107 1.0
16 116 1.0
16 124 1.0
16 131 1.0
16 137 1.0
16 142 1.0
16 146 1.0
16 149 1.0
16 151 1.0
16 152 1.0
17 17 -1.0
17 18 1.0
18 17 -1.0
18 19 1.0
19 17 -1.0
19 20 1.0
20 17 -1.0
20 21 1.0
21 17 -1.0
21 22 1.0
22 17 -1.0
22 23 1.0
23 17 -1.0
23 24 1.0
24 17 -1.0
24 25 1.0
25 17 -1.0
25 26 1.0
26 17 -1.0
26 27 1.0
27 17 -1.0
27 28 1.0
28 17 -1.0
28 29 1.0
29 17 -1.0
29 30 1.0
30 17 -1.0
30 31 1.0
31 17 -1.0
31 32 1.0
32 33 -1.0
32 34 1.0
33 33 -1.0
33 35 1.0
34 33 -1.0
34 36 1.0
35 33 -1.0
35 37 1.0
36 33 -1.0
36 38 1.0
37 33 -1.0
37 39 1.0
38 33 -1.0
38 40 1.0
39 33 -1.0
39 41 1.0
40 33 -1.0
40 42 1.0
41 33 -1.0
41 43 1.0
42 33 -1.0
42 44 1.0
43 33 -1.0
43 45 1.0
44 33 -1.0
44 46 1.0
45 33 -1.0
45 47 1.0
46 48 -1.0
46 49 1.0
47 48 -1.0
47 50 1.0
48 48 -1.0
48 51 1.0
49 48 -1.0
49 52 1.0
50 48 -1.0
50 53 1.0
51 48 -1.0
51 54 1.0
52 48 -1.0
52 55 1.0
53 48 -1.0
53 56 1.0
54 48 -1.0
54 57 1.0
55 48 -1.0
55 58 1.0
56 48 -1.0
56 59 1.0
57 48 -1.0
57 60 1.0
58 48 -1.0
58 61 1.0
59 62 -1.0
59 63 1.0
60 62 -1.0
60 64 1.0
61 62 -1.0
61 65 1.0
62 62 -1.0
62 66 1.0
63 62 -1.0
63 67 1.0
64 62 -1.0
64 68 1.0
65 62 -1.0
65 69 1.0
66 62 -1.0
66 70 1.0
67 62 -1.0
67 71 1.0
68 62 -1.0
68 72 1.0
69 62 -1.0
69 73 1.0
70 62 -1.0
70 74 1.0
71 75 -1.0
71 76 1.0
72 75 -1.0
72 77 1.0
73 75 -1.0
73 78 1.0
74 75 -1.0
74 79 1.0
75 75 -1.0
75 80 1.0
76 75 -1.0
76 81 1.0
77 75 -1.0
77 82 1.0
78 75 -1.0
78 83 1.0
79 75 -1.0
79 84 1.0
80 75 -1.0
80 85 1.0
81 75 -1.0
81 86 1.0
82 87 -1.0
82 88 1.0
83 87 -1.0
83 89 1.0
84 87 -1.0
84 90 1.0
85 87 -1.0
85 91 1.0
86 87 -1.0
86 92 1.0
87 87 -1.0
87 93 1.0
88 87 -1.0
88 94 1.0
89 87 -1.0
89 95 1.0
90 87 -1.0
90 96 1.0
91 87 -1.0
91 97 1.0
92 98 -1.0
92 99 1.0
93 98 -1.0
93 100 1.0
94 98 -1.0
94 101 1.0
95 98 -1.0
95 102 1.0
96 98 -1.0
96 103 1.0
97 98 -1.0
97 104 1.0
98 98 -1.0
98 105 1.0
99 98 -1.0
99 106 1.0
100 98 -1.0
100 107 1.0
101 108 -1.0
101 109 1.0
102 108 -1.0
102 110 1.0
103 108 -1.0
103 111 1.0
104 108 -1.0
104 112 1.0
105 108 -1.0
105 113 1.0
106 108 -1.0
106 114 1.0
107 108 -1.0
107 115 1.0
108 108 -1.0
108 116 1.0
109 117 -1.0
109 118 1.0
110 117 -1.0
110 119 1.0
111 117 -1.0
111 120 1.0
112 117 -1.0
112 121 1.0
113 117 -1.0
113 122 1.0
114 117 -1.0
114 123 1.0
115 117 -1.0
115 124 1.0
116 125 -1.0
116 126 1.0
117 125 -1.0
117 127 1.0
118 125 -1.0
118 128 1.0
119 125 -1.0
119 129 1.0
120 125 -1.0
120 130 1.0
121 125 -1.0
121 131 1.0
122 132 -1.0
122 133 1.0
123 132 -1.0
123 134 1.0
124 132 -1.0
124 135 1.0
125 132 -1.0
125 136 1.0
126 132 -1.0
126 137 1.0
127 138 -1.0
127 139 1.0
128 138 -1.0
128 140 1.0
129 138 -1.0
129 141 1.0
130 138 -1.0
130 142 1.0
131 143 -1.0
131 144 1.0
132 143 -1.0
132 145 1.0
133 143 -1.0
133 146 1.0
134 147 -1.0
134 148 1.0
135 147 -1.0
135 149 1.0
136 150 -1.0
136 151 1.0
137 1 6877.0
137 2 5286.0
137 3 7843.0
137 4 7235.0
137 5 6993.0
137 6 6782.0
137 7 6158.0
137 8 7417.0
137 9 6660.0
137 10 8001.0
137 11 5801.0
137 12 8841.0
137 13 7883.0
137 14 7117.0
137 15 7448.0
137 16 9672.0
138 17 -12740.0
138 18 6172.0
138 19 8620.0
138 20 8150.0
138 21 7786.0
138 22 7117.0
138 23 6544.0
138 24 7909.0
138 25 7309.0
138 26 8422.0
138 27 6163.0
138 28 8868.0
138 29 8573.0
138 30 7176.0
138 31 8211.0
138 32 10598.0
139 33 -13828.0
139 34 8620.0
139 35 8150.0
139 36 7786.0
139 37 7117.0
139 38 6544.0
139 39 7909.0
139 40 7309.0
139 41 8422.0
139 42 6163.0
139 43 8868.0
139 44 8573.0
139 45 7176.0
139 46 8211.0
139 47 10598.0
140 48 -11380.0
140 49 8150.0
140 50 7786.0
140 51 7117.0
140 52 6544.0
140 53 7909.0
140 54 7309.0
140 55 8422.0
140 56 6163.0
140 57 8868.0
140 58 8573.0
140 59 7176.0
140 60 8211.0
140 61 10598.0
141 62 -11850.0
141 63 7786.0
141 64 7117.0
141 65 6544.0
141 66 7909.0
141 67 7309.0
141 68 8422.0
141 69 6163.0
141 70 8868.0
141 71 8573.0
141 72 7176.0
141 73 8211.0
141 74 10598.0
142 75 -12214.0
142 76 7117.0
142 77 6544.0
142 78 7909.0
142 79 7309.0
142 80 8422.0
142 81 6163.0
142 82 8868.0
142 83 8573.0
142 84 7176.0
142 85 8211.0
142 86 10598.0
143 87 -12883.0
143 88 6544.0
143 89 7909.0
143 90 7309.0
143 91 8422.0
143 92 6163.0
143 93 8868.0
143 94 8573.0
143 95 7176.0
143 96 8211.0
143 97 10598.0
144 98 -13456.0
144 99 7909.0
144 100 7309.0
144 101 8422.0
144 102 6163.0
144 103 8868.0
144 104 8573.0
144 105 7176.0
144 106 8211.0
144 107 10598.0
145 108 -12091.0
145 109 7309.0
145 110 8422.0
145 111 6163.0
145 112 8868.0
145 113 8573.0
145 114 7176.0
145 115 8211.0
145 116 10598.0
146 117 -12691.0
146 118 8422.0
146 119 6163.0
146 120 8868.0
146 121 8573.0
146 122 7176.0
146 123 8211.0
146 124 10598.0
147 125 -11578.0
147 126 6163.0
147 127 8868.0
147 128 8573.0
147 129 7176.0
147 130 8211.0
147 131 10598.0
148 132 -13837.0
148 133 8868.0
148 134 8573.0
148 135 7176.0
148 136 8211.0
148 137 10598.0
149 138 -11132.0
149 139 8573.0
149 140 7176.0
149 141 8211.0
149 142 10598.0
150 143 -11427.0
150 144 7176.0
150 145 8211.0
150 146 10598.0
151 147 -12824.0
151 148 8211.0
151 149 10598.0
152 150 -11789.0
152 151 10598.0
1.79769313486232E+308 # value for infinity
-1.79769313486232E+308 # default left-hand-side value
16 # number of non-default left-hand-sides
1 1.0
2 1.0
3 1.0
4 1.0
5 1.0
6 1.0
7 1.0
8 1.0
9 1.0
10 1.0
11 1.0
12 1.0
13 1.0
14 1.0
15 1.0
16 1.0
0.0 # default right-hand-side value
17 # number of non-default right-hand-sides
1 1.0
2 1.0
3 1.0
4 1.0
5 1.0
6 1.0
7 1.0
8 1.0
9 1.0
10 1.0
11 1.0
12 1.0
13 1.0
14 1.0
15 1.0
16 1.0
137 11136.0
0.0 # default variable primal value in starting point
0 # number of non-default variable primal values in starting point
0.0 # default constraint dual value in starting point
0 # number of non-default constraint dual values in starting point
0.0 # default variable bound dual value in starting point
0 # number of non-default variable bound dual values in starting point
0 # number of non-default variable names
0 # number of non-default constraint names
